solution status: time limit reached
objective value:                                    1
thingy.thingy.chamber[8].first.vinlet_y                   20 	(obj:0)
thingy.thingy.chamber[8].first.vinlet_z                   19 	(obj:0)
thingy.thingy.chamber[1].first.vinlet_y                   24 	(obj:0)
thingy.thingy.chamber[1].first.vinlet_z                   20 	(obj:0)
thingy.thingy.chamber[7].first.vinlet_y                   21 	(obj:0)
thingy.thingy.chamber[7].first.vinlet_z                   20 	(obj:0)
thingy.thingy.chamber[2].first.vinlet_y                   24 	(obj:0)
thingy.thingy.chamber[2].first.vinlet_z                   19 	(obj:0)
thingy.thingy.chamber[1].first.vbead_y                   24 	(obj:0)
thingy.thingy.chamber[1].first.vbead_z                   24 	(obj:0)
thingy.thingy.vinlet.valves[3].vinlet_y                   24 	(obj:0)
thingy.thingy.vinlet.valves[3].vinlet_z                   21 	(obj:0)
thingy.thingy.chamber[3].first.vbead_y                   23 	(obj:0)
thingy.thingy.chamber[3].first.vbead_z                   24 	(obj:0)
thingy.thingy.chamber[0].first.vbead_y                   25 	(obj:0)
thingy.thingy.chamber[0].first.vbead_z                   22 	(obj:0)
thingy.thingy.vinlet.valves[4].vinlet_y                   23 	(obj:0)
thingy.thingy.vinlet.valves[4].vinlet_z                   21 	(obj:0)
thingy.thingy.chamber[4].first.vbead_y                   25 	(obj:0)
thingy.thingy.chamber[4].first.vbead_z                   23 	(obj:0)
thingy.thingy.chamber[2].first.vbead_y                   23 	(obj:0)
thingy.thingy.chamber[2].first.vbead_z                   23 	(obj:0)
thingy.thingy.vinlet.valves[0].vinlet_y                   23 	(obj:0)
thingy.thingy.vinlet.valves[0].vinlet_z                   25 	(obj:0)
thingy.thingy.chamber[3].first.vinlet_y                   23 	(obj:0)
thingy.thingy.chamber[3].first.vinlet_z                   20 	(obj:0)
thingy.thingy.chamber[5].first.vbead_y                   24 	(obj:0)
thingy.thingy.chamber[5].first.vbead_z                   23 	(obj:0)
thingy.thingy.chamber[0].first.vinlet_y                   22 	(obj:0)
thingy.thingy.chamber[0].first.vinlet_z                   23 	(obj:0)
thingy.thingy.chamber[9].first.vbead_y                   23 	(obj:0)
thingy.thingy.chamber[9].first.vbead_z                   22 	(obj:0)
thingy.thingy.vinlet.valves[1].vinlet_y                   25 	(obj:0)
thingy.thingy.vinlet.valves[1].vinlet_z                   25 	(obj:0)
thingy.thingy.chamber[6].first.vinlet_y                   20 	(obj:0)
thingy.thingy.chamber[6].first.vinlet_z                   23 	(obj:0)
thingy.thingy.chamber[9].first.vinlet_y                   19 	(obj:0)
thingy.thingy.chamber[9].first.vinlet_z                   18 	(obj:0)
thingy.thingy.vinlet.valves[2].vinlet_y                   24 	(obj:0)
thingy.thingy.vinlet.valves[2].vinlet_z                   25 	(obj:0)
thingy.thingy.chamber[8].first.vbead_y                   24 	(obj:0)
thingy.thingy.chamber[8].first.vbead_z                   22 	(obj:0)
thingy.thingy.chamber[7].first.vbead_y                   25 	(obj:0)
thingy.thingy.chamber[7].first.vbead_z                   24 	(obj:0)
thingy.thingy.chamber[4].first.vinlet_y                   23 	(obj:0)
thingy.thingy.chamber[4].first.vinlet_z                   19 	(obj:0)
thingy.thingy.chamber[6].first.vbead_y                   22 	(obj:0)
thingy.thingy.chamber[6].first.vbead_z                   22 	(obj:0)
thingy.thingy.chamber[5].first.vinlet_y                   21 	(obj:0)
thingy.thingy.chamber[5].first.vinlet_z                   19 	(obj:0)
x97                                                 1 	(obj:1)
